; benchmark generated from python API
(set-info :status unknown)
(declare-datatypes ((RealState 0)) (((RMk1 (rval1 Real)) (RMk2 (rval2 Real)))))
 (assert
 (forall ((|v11:0| Real) )(exists ((|v10:1_st| RealState) (val!1776 Real) )(forall ((|v9:2| Real) )(exists ((|v8:3_st| RealState) (val!1777 Real) )(forall ((|v7:4| Real) )(exists ((|v6:5_st| RealState) (val!1778 Real) )(forall ((|v5:6| Real) )(exists ((|v4:7_st| RealState) (val!1779 Real) )(forall ((|v3:8| Real) )(exists ((|v2:9_st| RealState) (val!1780 Real) )(forall ((|v1:10| Real) )(exists ((|v0:11_st| RealState) (val!1781 Real) )(let ((?x314 (- 17.0)))
 (let ((?x1209 (+ (+ (* 15.0 |v3:8|) (* (- 7.0) (rval2 |v4:7_st|))) (* 13.0 (rval2 |v0:11_st|)))))
 (let ((?x388 (- 12.0)))
 (let ((?x1237 (* 6.0 |v9:2|)))
 (let ((?x1419 (- 6.0)))
 (let ((?x1723 (* ?x1419 |v5:6|)))
 (let ((?x422 (+ (+ (* (- 4.0) (rval2 |v8:3_st|)) (* (- 18.0) (rval2 |v4:7_st|))) ?x1723)))
 (let ((?x2015 (+ (+ (* ?x388 |v9:2|) (* (- 18.0) (rval2 |v4:7_st|))) (* (- 5.0) (rval2 |v10:1_st|)))))
 (let (($x958 (and (<= (+ ?x2015 (* (- 10.0) (rval2 |v4:7_st|))) 10.0) (<= (+ ?x422 ?x1237) ?x388))))
 (let ((?x1238 (- 11.0)))
 (let ((?x1201 (* 14.0 |v9:2|)))
 (let ((?x1359 (+ (+ (* ?x1419 |v11:0|) (* (- 2.0) (rval2 |v8:3_st|))) (* 17.0 (rval2 |v8:3_st|)))))
 (let ((?x465 (- 1.0)))
 (let ((?x1271 (* ?x465 |v1:10|)))
 (let ((?x1353 (+ (+ (* (- 10.0) |v9:2|) (* (- 7.0) (rval2 |v8:3_st|))) (* (- 14.0) (rval2 |v0:11_st|)))))
 (let ((?x1424 (- 9.0)))
 (let ((?x2452 (* ?x1424 |v7:4|)))
 (let ((?x2016 (+ (+ (+ (* 16.0 |v1:10|) (* (- 19.0) |v3:8|)) (* ?x1419 (rval2 |v6:5_st|))) ?x2452)))
 (let (($x2897 (or (and (<= ?x2016 15.0) (<= (+ ?x1353 ?x1271) 12.0)) (<= (+ ?x1359 ?x1201) ?x1238))))
 (let ((?x1090 (- 13.0)))
 (let (($x2948 (<= (+ (+ (+ (* ?x314 (rval2 |v0:11_st|)) (* 18.0 (rval2 |v0:11_st|))) ?x1723) |v5:6|) ?x1090)))
 (let ((?x2085 (* 12.0 |v3:8|)))
 (let ((?x1812 (- 20.0)))
 (let ((?x440 (* ?x1812 |v7:4|)))
 (let (($x685 (<= (+ (+ (+ (* 20.0 (rval2 |v10:1_st|)) (* (- 19.0) |v7:4|)) ?x440) ?x2085) ?x465)))
 (let ((?x139 (- 19.0)))
 (let ((?x2594 (* ?x1424 |v11:0|)))
 (let ((?x1798 (+ (+ (+ (* (- 3.0) |v5:6|) (* 14.0 |v5:6|)) (* (- 16.0) |v9:2|)) ?x2594)))
 (let ((?x2504 (- 16.0)))
 (let ((?x2462 (* ?x2504 |v3:8|)))
 (let ((?x431 (+ (+ (+ (* 17.0 |v11:0|) (* (- 10.0) |v1:10|)) (* 17.0 |v9:2|)) ?x2462)))
 (let ((?x2284 (+ (+ (+ (* 0.0 |v7:4|) (* 20.0 (rval2 |v4:7_st|))) (* 13.0 |v5:6|)) (* ?x139 (rval2 |v8:3_st|)))))
 (let (($x1793 (and (and (<= ?x2284 9.0) (<= ?x431 ?x1424)) (and (<= ?x1798 ?x139) $x685))))
 (let ((?x538 (- 3.0)))
 (let ((?x2013 (+ (+ (* 3.0 (rval2 |v8:3_st|)) (* (- 8.0) (rval2 |v4:7_st|))) (* ?x388 (rval2 |v0:11_st|)))))
 (let ((?x214 (* 2.0 |v5:6|)))
 (let ((?x2582 (+ (+ (+ (* 16.0 (rval2 |v4:7_st|)) (* 19.0 |v9:2|)) (* 20.0 |v9:2|)) ?x214)))
 (let ((?x1331 (- 18.0)))
 (let ((?x2008 (+ (+ (+ (* (- 14.0) |v3:8|) (* ?x1812 (rval2 |v10:1_st|))) (* 5.0 |v3:8|)) (* (- 15.0) (rval2 |v10:1_st|)))))
 (let ((?x703 (+ (+ (+ (* ?x1419 (rval2 |v4:7_st|)) (* (- 4.0) |v5:6|)) (* 11.0 |v7:4|)) (* (- 15.0) |v9:2|))))
 (let (($x2296 (and (or (<= ?x703 7.0) (<= ?x2008 ?x1331)) (or (<= ?x2582 18.0) (<= (+ ?x2013 (* ?x1238 (rval2 |v10:1_st|))) ?x538)))))
 (let ((?x818 (- 10.0)))
 (let ((?x254 (rval2 |v6:5_st|)))
 (let ((?x1873 (* 19.0 ?x254)))
 (let ((?x195 (+ (+ (* 18.0 (rval2 |v8:3_st|)) (* 14.0 (rval2 |v8:3_st|))) (* ?x388 (rval2 |v8:3_st|)))))
 (let (($x1168 (<= (+ (+ (+ (* 17.0 ?x254) ?x2594) (* (- 2.0) |v3:8|)) (* ?x1238 ?x254)) 14.0)))
 (let ((?x1975 (- 7.0)))
 (let ((?x542 (* ?x1975 |v5:6|)))
 (let (($x1440 (<= (+ (+ (+ (* 7.0 |v9:2|) (* ?x1331 |v3:8|)) (* 13.0 |v7:4|)) ?x542) ?x1975)))
 (let ((?x801 (- 5.0)))
 (let ((?x410 (* 3.0 |v5:6|)))
 (let ((?x2445 (+ (+ (+ (* 6.0 |v11:0|) (* ?x1812 |v11:0|)) (* ?x1238 (rval2 |v2:9_st|))) ?x410)))
 (let (($x674 (or (or (and (<= ?x2445 ?x801) $x1440) (or $x1168 (<= (+ ?x195 ?x1873) ?x818))) $x2296)))
 (let (($x2312 (and (and $x674 (or $x1793 $x2948)) (and (or $x2897 $x958) (<= (+ ?x1209 (* ?x818 (rval2 |v2:9_st|))) ?x314)))))
 (let ((?x2149 (+ (+ (* ?x465 (rval2 |v2:9_st|)) (* ?x465 (rval2 |v8:3_st|))) (* ?x538 (rval2 |v2:9_st|)))))
 (let ((?x2031 (+ (+ (+ (* 19.0 (rval2 |v8:3_st|)) (* ?x1424 (rval2 |v2:9_st|))) ?x1723) (* ?x1331 |v5:6|))))
 (let ((?x540 (rval2 |v10:1_st|)))
 (let ((?x1588 (* 13.0 ?x540)))
 (let (($x277 (<= (+ (+ (+ |v5:6| (* ?x1419 (rval2 |v2:9_st|))) (* 19.0 |v5:6|)) ?x1588) 18.0)))
 (let ((?x1870 (+ (+ (+ (* ?x1975 ?x254) (* 0.0 |v5:6|)) (* (- 4.0) (rval2 |v4:7_st|))) (* ?x1090 ?x254))))
 (let (($x342 (and (or (<= ?x1870 15.0) $x277) (and (<= ?x2031 ?x1090) (<= (+ ?x2149 (* 18.0 |v3:8|)) ?x388)))))
 (let ((?x915 (* ?x1424 ?x254)))
 (let ((?x225 (+ (+ (+ (* 12.0 (rval2 |v0:11_st|)) (* ?x538 |v3:8|)) (* 7.0 |v9:2|)) ?x915)))
 (let ((?x1932 (rval2 |v4:7_st|)))
 (let ((?x2691 (* 12.0 ?x1932)))
 (let ((?x344 (+ (+ (+ (* 11.0 |v5:6|) (* 20.0 (rval2 |v2:9_st|))) (* 20.0 |v1:10|)) ?x2691)))
 (let ((?x1912 (* 2.0 |v1:10|)))
 (let ((?x1940 (+ (+ (+ (* (- 2.0) (rval2 |v2:9_st|)) (* ?x538 |v3:8|)) (* ?x538 |v7:4|)) ?x1912)))
 (let ((?x213 (+ (+ (+ (* (- 8.0) ?x1932) (* 18.0 (rval2 |v8:3_st|))) (* ?x139 |v7:4|)) (* ?x818 |v7:4|))))
 (let (($x1499 (and (and (<= ?x213 14.0) (<= ?x1940 5.0)) (or (<= ?x344 17.0) (<= ?x225 ?x1812)))))
 (let ((?x2749 (- 8.0)))
 (let ((?x2806 (* 12.0 |v1:10|)))
 (let (($x1018 (<= (+ (+ (+ (* ?x1331 |v11:0|) (* 18.0 ?x254)) (* 9.0 ?x1932)) ?x2806) ?x2749)))
 (let ((?x983 (+ (+ (+ (* (- 4.0) |v5:6|) (* (- 15.0) ?x254)) (* ?x388 |v11:0|)) (* 8.0 |v9:2|))))
 (let ((?x1405 (* 3.0 |v3:8|)))
 (let ((?x2902 (+ (+ (+ (* (- 14.0) (rval2 |v8:3_st|)) (* 4.0 |v9:2|)) (* ?x314 |v9:2|)) ?x1405)))
 (let ((?x535 (+ (+ (+ (* ?x465 (rval2 |v2:9_st|)) (* (- 15.0) ?x1932)) (* 5.0 |v1:10|)) (* ?x1238 |v11:0|))))
 (let (($x1136 (or (or (<= ?x535 9.0) (<= ?x2902 0.0)) (and (<= ?x983 15.0) $x1018))))
 (let ((?x389 (* ?x1331 ?x1932)))
 (let ((?x2516 (+ (+ (+ (* ?x818 |v1:10|) (* 17.0 |v7:4|)) (* (- 14.0) (rval2 |v8:3_st|))) ?x389)))
 (let ((?x2895 (+ (+ (+ (* ?x1238 (rval2 |v0:11_st|)) (* ?x314 ?x540)) (* ?x314 (rval2 |v2:9_st|))) (* ?x1975 |v1:10|))))
 (let ((?x967 (rval2 |v8:3_st|)))
 (let ((?x1662 (- 14.0)))
 (let ((?x1313 (* ?x1662 ?x967)))
 (let ((?x2660 (+ (+ (+ (* 11.0 |v7:4|) (* 8.0 (rval2 |v0:11_st|))) (* 8.0 |v3:8|)) ?x1313)))
 (let ((?x1158 (+ (+ (+ (* ?x818 (rval2 |v0:11_st|)) (* ?x314 |v11:0|)) (* 11.0 |v1:10|)) (* ?x1662 |v1:10|))))
 (let (($x1615 (and (and (<= ?x1158 10.0) (<= ?x2660 4.0)) (or (<= ?x2895 15.0) (<= ?x2516 ?x1090)))))
 (let ((?x397 (+ (+ (+ (* ?x139 |v7:4|) (* 5.0 |v5:6|)) (* ?x1975 (rval2 |v0:11_st|))) (* 3.0 |v11:0|))))
 (let ((?x1261 (rval2 |v2:9_st|)))
 (let ((?x948 (* 20.0 ?x1261)))
 (let (($x1966 (<= (+ (+ (+ (* ?x1424 ?x967) (* ?x388 |v5:6|)) (* (- 4.0) ?x967)) ?x948) ?x1424)))
 (let ((?x1865 (* 5.0 ?x1261)))
 (let (($x849 (<= (+ (+ (+ (* ?x2504 |v7:4|) (* ?x1090 |v5:6|)) (* 20.0 ?x254)) ?x1865) 8.0)))
 (let ((?x2937 (- 2.0)))
 (let ((?x2400 (- 4.0)))
 (let ((?x483 (* ?x2400 |v5:6|)))
 (let (($x363 (<= (+ (+ (+ (* ?x1662 ?x1932) (* ?x388 |v1:10|)) (* 15.0 ?x967)) ?x483) ?x2937)))
 (let (($x1721 (<= (+ (+ (+ (* 14.0 ?x540) (* 0.0 |v1:10|)) ?x2691) (* 16.0 |v11:0|)) 5.0)))
 (let (($x2531 (<= (+ (+ (+ (* 10.0 |v3:8|) (* 19.0 |v3:8|)) (* 9.0 ?x967)) |v5:6|) 2.0)))
 (let ((?x368 (* ?x1419 ?x1932)))
 (let (($x2050 (<= (+ (+ (+ (* ?x1090 ?x1261) (* ?x139 ?x540)) (* 17.0 ?x1932)) ?x368) ?x801)))
 (let ((?x1646 (* 16.0 |v1:10|)))
 (let (($x2857 (<= (+ (+ (+ (* 11.0 ?x1261) (* 4.0 ?x967)) (* 20.0 |v9:2|)) ?x1646) ?x818)))
 (let (($x502 (or (or (and $x2857 $x2050) (and $x2531 $x1721)) (and (and $x363 $x849) (or $x1966 (<= ?x397 17.0))))))
 (let (($x405 (<= (+ (+ (+ (* 10.0 |v5:6|) ?x915) (* 14.0 ?x254)) (* ?x1662 ?x1932)) ?x2749)))
 (let ((?x2254 (* 13.0 ?x1261)))
 (let (($x654 (<= (+ (+ (+ (* ?x1424 ?x967) (* 2.0 ?x254)) (* ?x388 ?x1932)) ?x2254) 8.0)))
 (let ((?x1357 (* 10.0 ?x1261)))
 (let ((?x201 (+ (+ (+ (* ?x2749 (rval2 |v0:11_st|)) (* ?x388 |v7:4|)) (* 15.0 ?x967)) ?x1357)))
 (let (($x673 (<= (+ (+ (+ (* 5.0 |v1:10|) (* 17.0 |v1:10|)) ?x1588) (* ?x1419 ?x254)) ?x1419)))
 (let (($x2961 (<= (+ (+ (+ (* ?x1812 |v11:0|) (* 0.0 ?x540)) |v1:10|) (* ?x801 |v11:0|)) 4.0)))
 (let ((?x810 (+ (+ (+ (* ?x139 (rval2 |v0:11_st|)) (* ?x2504 |v5:6|)) (* 3.0 ?x254)) (* ?x139 |v1:10|))))
 (let ((?x1480 (* ?x314 ?x1261)))
 (let (($x1542 (<= (+ (+ (+ (* 11.0 |v3:8|) (* ?x1662 ?x254)) (* ?x1812 ?x967)) ?x1480) ?x1090)))
 (let (($x962 (<= (+ (+ (+ (* ?x1419 |v11:0|) ?x1588) (* 9.0 ?x967)) (* ?x818 |v3:8|)) ?x1419)))
 (let (($x49 (and (or (and $x962 $x1542) (and (<= ?x810 ?x139) $x2961)) (and (and $x673 (<= ?x201 ?x1419)) (and $x654 $x405)))))
 (let (($x1886 (and (and (or $x49 $x502) (and (and $x1615 $x1136) (and $x1499 $x342))) $x2312)))
 (let (($x1423 (not (= |v0:11_st| (RMk1 val!1781)))))
 (let (($x937 (not (= |v2:9_st| (RMk1 val!1780)))))
 (let (($x1277 (not (= |v4:7_st| (RMk1 val!1779)))))
 (let (($x1151 (not (= |v6:5_st| (RMk1 val!1778)))))
 (let (($x1011 (not (= |v8:3_st| (RMk1 val!1777)))))
 (let (($x439 (not (= |v10:1_st| (RMk1 val!1776)))))
 (and $x439 $x1011 $x1151 $x1277 $x937 $x1423 $x1886)))))))))))))))))))))))))))))))))))))))))))))))))))))))))))))))))))))))))))))))))))))))))))))))))))))))))))))))))))))))))))))
 )
 )
 )
 )
 )
 )
 )
 )
 )
 )
 )
 )
(check-sat)
